n_machines = 5;
n_resources = 7;
n_jobs = 35;
horizon = 1916;
LB = 383;
n_jobs_per_resource = [5, 5, 5, 5, 5, 5, 5];
duration = [70, 33, 62, 34, 45, 53, 94, 31, 38, 83, 38, 43, 88, 40, 84, 85, 25, 61, 92, 79, 9, 63, 73, 59, 66, 86, 41, 16, 57, 4, 71, 20, 88, 54, 31]